100 1000
58 119
79 156
89 479
63 112
16 79
10 241
23 470
92 237
12 424
88 442
41 351
45 373
9 291
70 158
39 445
21 374
91 484
90 336
23 416
47 270
29 72
26 415
18 131
64 23
47 293
74 198
60 421
71 76
79 462
12 43
40 213
92 378
62 279
53 403
53 431
74 47
17 172
83 47
58 248
88 274
45 75
100 292
82 310
24 403
17 231
65 476
8 435
16 275
20 165
22 92
42 488
91 125
45 495
67 468
37 443
11 138
26 335
71 150
17 330
39 324
69 57
65 338
22 313
75 88
22 347
80 378
78 182
73 31
4 51
6 495
83 404
74 145
84 117
99 302
54 326
82 25
64 465
81 289
38 338
39 257
32 422
88 217
39 242
10 362
8 90
57 222
62 247
27 184
78 83
41 451
92 173
94 450
45 214
17 399
48 273
72 64
41 133
60 72
35 240
32 82
